3264167
37,25,9,99,103,88,70,46,75,53,52,22,108,80,83,15,106,29,66,43,79,91,16,101,104,92,12,18,86,61,72,95,21,90,57,98,17,49,96,74,71,68,69,30,48,10,40,8,63,3,78,55,102,47,73,20,59,105,41,27,67,39,6,87,54,77,107,32,64,11,35,7,13,38,85,26,56,76,93,45,1,42,31,50,51,82,23,100,34,81,89,33,0,44,97,4,28,58,60,94,5,84,24,2,19,62,14,65,36
